CSW06
Position Depot: Random
Horizon for Depot: Small
Position of customers: Cluster
Distribution of the demand: Large
Width of time windows: Wide
Distribution of the service: Small

VEHICLE 
NUMBER 	 CAPACITY 
 12 	 	 205 
 
CUSTOMER
CUST NO. 	 XCOORD.  	 YCOORD. 	 DEMAND 	 READY TIME 	 DUE DATE 	 SERVICE TIME 
 0 	 	 774 	 	 383 	 	 0 	 	 0 	 	 1916 	 	 0 
  1 	 	 687 	 	 218 	 	 72 	 	 -6 	 	 205 	 	 87 
  2 	 	 253 	 	 645 	 	 47 	 	 238 	 	 641 	 	 81 
  3 	 	 339 	 	 367 	 	 55 	 	 275 	 	 481 	 	 85 
  4 	 	 292 	 	 711 	 	 76 	 	 339 	 	 641 	 	 68 
  5 	 	 296 	 	 571 	 	 54 	 	 339 	 	 565 	 	 71 
  6 	 	 672 	 	 237 	 	 18 	 	 1079 	 	 1366 	 	 64 
  7 	 	 278 	 	 371 	 	 35 	 	 1070 	 	 1278 	 	 84 
  8 	 	 675 	 	 207 	 	 60 	 	 444 	 	 791 	 	 81 
  9 	 	 278 	 	 601 	 	 71 	 	 1066 	 	 1297 	 	 74 
  10 	 	 232 	 	 678 	 	 51 	 	 187 	 	 678 	 	 59 
  11 	 	 384 	 	 363 	 	 24 	 	 885 	 	 1216 	 	 70 
  12 	 	 553 	 	 286 	 	 14 	 	 722 	 	 997 	 	 57 
  13 	 	 733 	 	 152 	 	 4 	 	 131 	 	 484 	 	 86 
  14 	 	 54 	 	 526 	 	 72 	 	 394 	 	 807 	 	 60 
  15 	 	 415 	 	 362 	 	 2 	 	 741 	 	 1225 	 	 68 
  16 	 	 710 	 	 228 	 	 30 	 	 1397 	 	 1649 	 	 74 
  17 	 	 713 	 	 205 	 	 82 	 	 1191 	 	 1680 	 	 61 
  18 	 	 336 	 	 321 	 	 69 	 	 95 	 	 486 	 	 97 
  19 	 	 717 	 	 223 	 	 7 	 	 1614 	 	 1890 	 	 80 
  20 	 	 683 	 	 255 	 	 80 	 	 450 	 	 793 	 	 100 
  21 	 	 401 	 	 380 	 	 2 	 	 961 	 	 1413 	 	 82 
  22 	 	 524 	 	 361 	 	 94 	 	 475 	 	 877 	 	 61 
  23 	 	 638 	 	 278 	 	 80 	 	 -30 	 	 227 	 	 100 
  24 	 	 639 	 	 229 	 	 19 	 	 1571 	 	 1857 	 	 92 
  25 	 	 321 	 	 402 	 	 35 	 	 1039 	 	 1484 	 	 83 
  26 	 	 196 	 	 588 	 	 92 	 	 458 	 	 674 	 	 52 
  27 	 	 374 	 	 308 	 	 68 	 	 755 	 	 1222 	 	 74 
  28 	 	 210 	 	 588 	 	 78 	 	 448 	 	 737 	 	 52 
  29 	 	 736 	 	 369 	 	 6 	 	 934 	 	 1376 	 	 62 
  30 	 	 308 	 	 609 	 	 97 	 	 263 	 	 760 	 	 98 
  31 	 	 342 	 	 594 	 	 15 	 	 279 	 	 689 	 	 68 
  32 	 	 297 	 	 365 	 	 34 	 	 723 	 	 940 	 	 70 
  33 	 	 418 	 	 222 	 	 4 	 	 1619 	 	 1916 	 	 70 
  34 	 	 307 	 	 685 	 	 59 	 	 205 	 	 611 	 	 65 
  35 	 	 292 	 	 453 	 	 69 	 	 1055 	 	 1518 	 	 79 
  36 	 	 742 	 	 227 	 	 86 	 	 1480 	 	 1903 	 	 66 
  37 	 	 427 	 	 287 	 	 44 	 	 394 	 	 776 	 	 52 
  38 	 	 655 	 	 227 	 	 54 	 	 45 	 	 348 	 	 52 
  39 	 	 688 	 	 172 	 	 96 	 	 1459 	 	 1916 	 	 91 
  40 	 	 339 	 	 265 	 	 33 	 	 690 	 	 998 	 	 95 
  41 	 	 273 	 	 704 	 	 78 	 	 1299 	 	 1578 	 	 72 
  42 	 	 309 	 	 635 	 	 21 	 	 375 	 	 606 	 	 67 
  43 	 	 314 	 	 706 	 	 28 	 	 425 	 	 922 	 	 58 
  44 	 	 437 	 	 390 	 	 93 	 	 776 	 	 1054 	 	 51 
  45 	 	 665 	 	 190 	 	 87 	 	 1518 	 	 1916 	 	 91 
  46 	 	 641 	 	 97 	 	 70 	 	 352 	 	 809 	 	 50 
  47 	 	 366 	 	 296 	 	 37 	 	 1239 	 	 1490 	 	 68 
  48 	 	 728 	 	 224 	 	 49 	 	 42 	 	 288 	 	 94 
  49 	 	 337 	 	 392 	 	 54 	 	 1152 	 	 1567 	 	 84 
  50 	 	 180 	 	 627 	 	 46 	 	 1066 	 	 1501 	 	 91 
 